; ./seahorn/./sv_comp_flat_small/product-lines/elevator_spec9_product09_true-unreach-call.cil.c.flat_000.smt2
(set-logic HORN)

(declare-fun |main_1| ( Int Int Int Int Int Int Int Int Int Int ) Bool)

(assert
  (forall ( (A Int) (B Int) (C Int) (D Int) (E Int) (F Int) (G Int) (H Int) (I Int) (v_9 Int) ) 
    (=>
      (and
        (and true (= 0 v_9))
      )
      (main_1 v_9 A B C D E F G H I)
    )
  )
)
(assert
  (forall ( (A Int) (B Int) (C Int) (D Int) (E Int) (F Int) (G Int) (H Int) (I Int) (J Int) (K Int) (L Bool) (M Bool) (N Bool) (O Int) (P Int) (Q Int) (R Int) (S Int) (T Int) (U Int) (V Int) (W Int) (X Int) (Y Int) (Z Int) (A1 Int) (B1 Int) (C1 Int) (D1 Int) (v_30 Int) (v_31 Int) ) 
    (=>
      (and
        (main_1 v_30 C D E F G H I J K)
        (and (= 0 v_30)
     (or (= T 0) (not N) (not L))
     (or (= S 1) (not N) (not L))
     (or (= R 1) (not N) (not L))
     (or (= Q 1) (not N) (not L))
     (or (= P 1) (not N) (not L))
     (or (= O 0) (not N) (not L))
     (or (= B T) (not N) (not L))
     (or (= A O) (not N) (not L))
     (or (= D1 W) (not N) (not L))
     (or (= C1 V) (not N) (not L))
     (or (= B1 U) (not N) (not L))
     (or (= A1 S) (not N) (not L))
     (or (= Z R) (not N) (not L))
     (or (= Y Q) (not N) (not L))
     (or (= X P) (not N) (not L))
     (or (= W 0) (not N) (not L))
     (or (= V 0) (not N) (not L))
     (or (not M) (and L N))
     (= M true)
     (or (= U 0) (not N) (not L))
     (= 1 v_31))
      )
      (main_1 v_31 A X Y Z A1 B B1 C1 D1)
    )
  )
)
(assert
  (forall ( (A Bool) (B Bool) (C Bool) (D Bool) (E Bool) (F Bool) (G Bool) (H Bool) (I Bool) (J Bool) (K Int) (L Bool) (M Bool) (N Bool) (O Bool) (P Int) (Q Bool) (R Bool) (S Bool) (T Bool) (U Bool) (V Bool) (W Bool) (X Int) (Y Bool) (Z Bool) (A1 Bool) (B1 Bool) (C1 Bool) (D1 Bool) (E1 Bool) (F1 Bool) (G1 Bool) (H1 Bool) (I1 Bool) (J1 Bool) (K1 Bool) (L1 Bool) (M1 Bool) (N1 Bool) (O1 Bool) (P1 Bool) (Q1 Bool) (R1 Bool) (S1 Bool) (T1 Bool) (U1 Bool) (V1 Int) (W1 Int) (X1 Int) (Y1 Int) (Z1 Int) (A2 Int) (B2 Int) (C2 Bool) (D2 Bool) (E2 Bool) (F2 Bool) (G2 Bool) (H2 Bool) (I2 Bool) (J2 Bool) (K2 Bool) (L2 Bool) (M2 Bool) (N2 Int) (O2 Int) (P2 Int) (Q2 Int) (R2 Int) (S2 Int) (T2 Int) (U2 Int) (V2 Int) (W2 Int) (X2 Int) (Y2 Bool) (Z2 Int) (A3 Int) (B3 Int) (C3 Int) (D3 Int) (E3 Int) (F3 Int) (G3 Int) (H3 Int) (I3 Int) (J3 Int) (K3 Int) (L3 Int) (M3 Int) (N3 Int) (O3 Int) (P3 Bool) (Q3 Bool) (R3 Bool) (S3 Bool) (T3 Bool) (U3 Bool) (V3 Bool) (W3 Bool) (X3 Bool) (Y3 Bool) (Z3 Bool) (A4 Int) (B4 Int) (C4 Bool) (D4 Bool) (E4 Int) (F4 Bool) (G4 Bool) (H4 Bool) (I4 Bool) (J4 Bool) (K4 Bool) (L4 Int) (M4 Bool) (N4 Bool) (O4 Bool) (P4 Bool) (Q4 Bool) (R4 Bool) (S4 Bool) (T4 Bool) (U4 Bool) (V4 Bool) (W4 Bool) (X4 Bool) (Y4 Bool) (Z4 Bool) (A5 Bool) (B5 Bool) (C5 Bool) (D5 Bool) (E5 Bool) (F5 Int) (G5 Int) (H5 Int) (I5 Int) (J5 Bool) (K5 Bool) (L5 Bool) (M5 Bool) (N5 Bool) (O5 Bool) (P5 Bool) (Q5 Bool) (R5 Bool) (S5 Int) (T5 Int) (U5 Int) (V5 Int) (W5 Bool) (X5 Bool) (Y5 Bool) (Z5 Bool) (A6 Bool) (B6 Bool) (C6 Bool) (D6 Int) (E6 Bool) (F6 Bool) (G6 Int) (H6 Bool) (I6 Bool) (J6 Bool) (K6 Int) (L6 Int) (M6 Int) (N6 Int) (O6 Bool) (P6 Bool) (Q6 Bool) (R6 Bool) (S6 Bool) (T6 Bool) (U6 Bool) (V6 Int) (W6 Int) (X6 Int) (Y6 Int) (Z6 Int) (A7 Int) (B7 Int) (C7 Int) (D7 Int) (E7 Int) (F7 Int) (G7 Int) (H7 Int) (I7 Int) (J7 Int) (K7 Int) (L7 Int) (M7 Int) (N7 Int) (O7 Int) (P7 Int) (Q7 Int) (R7 Int) (S7 Int) (T7 Int) (U7 Int) (V7 Int) (W7 Int) (X7 Int) (Y7 Int) (Z7 Int) (A8 Int) (B8 Int) (C8 Int) (D8 Int) (E8 Int) (F8 Int) (G8 Int) (H8 Int) (I8 Int) (J8 Int) (K8 Int) (L8 Int) (M8 Int) (N8 Int) (O8 Int) (P8 Int) (Q8 Int) (R8 Int) (S8 Bool) (T8 Bool) (U8 Bool) (V8 Bool) (W8 Int) (X8 Bool) (Y8 Bool) (Z8 Bool) (A9 Bool) (B9 Bool) (C9 Int) (D9 Int) (E9 Int) (F9 Int) (G9 Int) (H9 Int) (I9 Int) (J9 Int) (K9 Int) (L9 Int) (M9 Int) (N9 Int) (O9 Int) (P9 Int) (Q9 Int) (R9 Int) (S9 Int) (T9 Int) (U9 Int) (V9 Int) (W9 Int) (X9 Int) (Y9 Int) (Z9 Int) (A10 Int) (B10 Int) (C10 Int) (D10 Int) (E10 Int) (F10 Int) (G10 Int) (H10 Int) (I10 Int) (J10 Int) (K10 Bool) (L10 Bool) (v_272 Int) (v_273 Int) ) 
    (=>
      (and
        (main_1 v_272 P2 Q2 R2 S2 T2 U2 V2 W2 X2)
        (let ((a!1 (or (not X8) (not (= (<= 11 J10) A))))
      (a!2 (or (not U8) (not (= (<= O8 3) B))))
      (a!3 (or (not S8) (not (= (<= 3 O8) F))))
      (a!4 (or (not O6) (not (= (= L8 1) H))))
      (a!5 (or (not N5) (not (= (<= 4 T2) S))))
      (a!6 (or (not N5) (not (= (<= 2 T2) Q))))
      (a!7 (or (not A5) (not (= (<= T2 2) A1))))
      (a!8 (or (not A5) (not (= (<= T2 0) Y))))
      (a!9 (or (not W4) (not (= (<= T2 2) H1))))
      (a!10 (or (not W4) (not (= (<= T2 0) F1))))
      (a!11 (or (not P4) (not (= (<= 4 T2) P1))))
      (a!12 (or (not P4) (not (= (<= 2 T2) N1))))
      (a!13 (or (not W3) (not (= (= W2 0) C2))))
      (a!14 (or (not W3) (not (= (<= 2 T2) E2))))
      (a!15 (or (not U3) (not (= (= V2 0) G2))))
      (a!16 (or (not R3) (not (= (= T2 1) J2))))
      (a!17 (or (not R3) (not (= (<= 1 T2) T3)))))
  (and (= 1 v_272)
       (= P3 (= Q2 0))
       (= L2 (and P3 Q3))
       (not (= L2 M2))
       (or (and H6 P6)
           (and P5 Q6)
           (and C5 R6)
           (and C4 S6)
           (and H4 T6)
           (and F4 U6)
           (not O6))
       (or (and U8 Y8) (and S8 Z8) (and O6 A9) (and H4 B9) (not X8))
       (or (and W5 A6) (and W4 B6) (and U4 C6) (not Z5))
       (or (and R4 K5) (and A5 L5) (and Y4 M5) (not J5))
       (or (= O3 H3) (not X8) (not L10))
       (or (= N3 G3) (not X8) (not L10))
       (or (= M3 F3) (not X8) (not L10))
       (or (= L3 D3) (not X8) (not L10))
       (or (= K3 C3) (not X8) (not L10))
       (or (= J3 B3) (not X8) (not L10))
       (or (= I3 A3) (not X8) (not L10))
       (or (= H3 I10) (not X8) (not L10))
       (or (= G3 B2) (not X8) (not L10))
       (or (= F3 A2) (not X8) (not L10))
       (or (= E3 Z1) (not X8) (not L10))
       (or (= D3 Y1) (not X8) (not L10))
       (or (= C3 X1) (not X8) (not L10))
       (or (= B3 W1) (not X8) (not L10))
       (or (= A3 V1) (not X8) (not L10))
       (or (= Z2 J10) (not X8) (not L10))
       (or (= O2 E3) (not X8) (not L10))
       (or (= N2 Z2) (not X8) (not L10))
       (or (= H9 M8) (not U8) (not Y8))
       (or (= G9 N8) (not U8) (not Y8))
       (or (= F9 O8) (not U8) (not Y8))
       (or (= E9 P8) (not U8) (not Y8))
       (or (= D9 Q8) (not U8) (not Y8))
       (or (= C9 R8) (not U8) (not Y8))
       (or (= B2 I9) (not U8) (not Y8))
       (or (= A2 H9) (not U8) (not Y8))
       (or (= Z1 G9) (not U8) (not Y8))
       (or (= Y1 F9) (not U8) (not Y8))
       (or (= X1 E9) (not U8) (not Y8))
       (or (= W1 D9) (not U8) (not Y8))
       (or (= V1 C9) (not U8) (not Y8))
       (or (= J9 W8) (not U8) (not Y8))
       (or (= I9 L8) (not U8) (not Y8))
       (or (= I10 J9) (not U8) (not Y8))
       (or (= B2 Q9) (not S8) (not Z8))
       (or (= A2 P9) (not S8) (not Z8))
       (or (= Z1 O9) (not S8) (not Z8))
       (or (= Y1 N9) (not S8) (not Z8))
       (or (= X1 M9) (not S8) (not Z8))
       (or (= W1 L9) (not S8) (not Z8))
       (or (= V1 K9) (not S8) (not Z8))
       (or (= R9 X2) (not S8) (not Z8))
       (or (= Q9 L8) (not S8) (not Z8))
       (or (= P9 M8) (not S8) (not Z8))
       (or (= O9 N8) (not S8) (not Z8))
       (or (= N9 O8) (not S8) (not Z8))
       (or (= M9 P8) (not S8) (not Z8))
       (or (= L9 Q8) (not S8) (not Z8))
       (or (= K9 R8) (not S8) (not Z8))
       (or (= I10 R9) (not S8) (not Z8))
       (or (= V9 O8) (not O6) (not A9))
       (or (= U9 P8) (not O6) (not A9))
       (or (= T9 Q8) (not O6) (not A9))
       (or (= B2 Y9) (not O6) (not A9))
       (or (= A2 X9) (not O6) (not A9))
       (or (= Z1 W9) (not O6) (not A9))
       (or (= Y1 V9) (not O6) (not A9))
       (or (= X1 U9) (not O6) (not A9))
       (or (= W1 T9) (not O6) (not A9))
       (or (= V1 S9) (not O6) (not A9))
       (or (= Z9 0) (not O6) (not A9))
       (or (= Y9 L8) (not O6) (not A9))
       (or (= X9 M8) (not O6) (not A9))
       (or (= W9 N8) (not O6) (not A9))
       (or (= S9 R8) (not O6) (not A9))
       (or (= I10 Z9) (not O6) (not A9))
       (or (and Z5 I6) (and E6 J6) (not H6))
       (or (= R8 B7) (not H6) (not P6))
       (or (= Q8 A7) (not H6) (not P6))
       (or (= P8 Z6) (not H6) (not P6))
       (or (= O8 Y6) (not H6) (not P6))
       (or (= N8 X6) (not H6) (not P6))
       (or (= M8 W6) (not H6) (not P6))
       (or (= L8 V6) (not H6) (not P6))
       (or (= B7 Q2) (not H6) (not P6))
       (or (= A7 R2) (not H6) (not P6))
       (or (= Z6 M6) (not H6) (not P6))
       (or (= Y6 N6) (not H6) (not P6))
       (or (= X6 L4) (not H6) (not P6))
       (or (= W6 V2) (not H6) (not P6))
       (or (= V6 W2) (not H6) (not P6))
       (or (= M6 L6) (not E6) (not J6))
       (or (= L6 G6) (not E6) (not J6))
       (or (= M6 K6) (not Z5) (not I6))
       (or (= K6 D6) (not Z5) (not I6))
       (or (and N5 X5) (and J5 Y5) (not W5))
       (or (and N5 Q5) (and W4 R5) (not P5))
       (or (= R8 I7) (not P5) (not Q6))
       (or (= Q8 H7) (not P5) (not Q6))
       (or (= P8 G7) (not P5) (not Q6))
       (or (= O8 F7) (not P5) (not Q6))
       (or (= N8 E7) (not P5) (not Q6))
       (or (= M8 D7) (not P5) (not Q6))
       (or (= L8 C7) (not P5) (not Q6))
       (or (= I7 Q2) (not P5) (not Q6))
       (or (= H7 R2) (not P5) (not Q6))
       (or (= G7 U5) (not P5) (not Q6))
       (or (= F7 V5) (not P5) (not Q6))
       (or (= E7 L4) (not P5) (not Q6))
       (or (= D7 V2) (not P5) (not Q6))
       (or (= C7 W2) (not P5) (not Q6))
       (or (= U5 S5) (not N5) (not Q5))
       (or (= S5 0) (not N5) (not Q5))
       (or (and P4 D5) (and A5 E5) (not C5))
       (or (= R8 P7) (not C5) (not R6))
       (or (= Q8 O7) (not C5) (not R6))
       (or (= P8 N7) (not C5) (not R6))
       (or (= O8 M7) (not C5) (not R6))
       (or (= N8 L7) (not C5) (not R6))
       (or (= M8 K7) (not C5) (not R6))
       (or (= L8 J7) (not C5) (not R6))
       (or (= P7 Q2) (not C5) (not R6))
       (or (= O7 R2) (not C5) (not R6))
       (or (= N7 H5) (not C5) (not R6))
       (or (= M7 I5) (not C5) (not R6))
       (or (= L7 L4) (not C5) (not R6))
       (or (= K7 V2) (not C5) (not R6))
       (or (= J7 W2) (not C5) (not R6))
       (or (= H5 G5) (not A5) (not E5))
       (or (= G5 1) (not A5) (not E5))
       (or (= U5 T5) (not W4) (not R5))
       (or (= T5 1) (not W4) (not R5))
       (or (and P4 S4) (and N4 T4) (not R4))
       (or (= H5 F5) (not P4) (not D5))
       (or (= F5 S2) (not P4) (not D5))
       (or M4 (not W5) (not F6))
       (or (not M4) (not W5) (not A6))
       (or M4 (not J4) (not Z4))
       (or (not M4) (not J4) (not O4))
       (or (= B2 G10) (not H4) (not B9))
       (or (= A2 F10) (not H4) (not B9))
       (or (= Z1 E10) (not H4) (not B9))
       (or (= Y1 D10) (not H4) (not B9))
       (or (= X1 C10) (not H4) (not B9))
       (or (= W1 B10) (not H4) (not B9))
       (or (= V1 A10) (not H4) (not B9))
       (or (= C10 S2) (not H4) (not B9))
       (or (= B10 0) (not H4) (not B9))
       (or (= A10 0) (not H4) (not B9))
       (or (= I10 H10) (not H4) (not B9))
       (or (= H10 1) (not H4) (not B9))
       (or (= G10 1) (not H4) (not B9))
       (or (= F10 1) (not H4) (not B9))
       (or (= E10 1) (not H4) (not B9))
       (or (= D10 1) (not H4) (not B9))
       (or (= R8 D8) (not H4) (not T6))
       (or (= Q8 C8) (not H4) (not T6))
       (or (= P8 B8) (not H4) (not T6))
       (or (= O8 A8) (not H4) (not T6))
       (or (= N8 Z7) (not H4) (not T6))
       (or (= M8 Y7) (not H4) (not T6))
       (or (= L8 X7) (not H4) (not T6))
       (or (= D8 0) (not H4) (not T6))
       (or (= C8 0) (not H4) (not T6))
       (or (= B8 S2) (not H4) (not T6))
       (or (= A8 1) (not H4) (not T6))
       (or (= Z7 1) (not H4) (not T6))
       (or (= Y7 B4) (not H4) (not T6))
       (or (= X7 A4) (not H4) (not T6))
       (or (= R8 K8) (not F4) (not U6))
       (or (= Q8 J8) (not F4) (not U6))
       (or (= P8 I8) (not F4) (not U6))
       (or (= O8 H8) (not F4) (not U6))
       (or (= N8 G8) (not F4) (not U6))
       (or (= M8 F8) (not F4) (not U6))
       (or (= L8 E8) (not F4) (not U6))
       (or (= K8 Q2) (not F4) (not U6))
       (or (= J8 R2) (not F4) (not U6))
       (or (= I8 S2) (not F4) (not U6))
       (or (= H8 T2) (not F4) (not U6))
       (or (= G8 1) (not F4) (not U6))
       (or (= F8 B4) (not F4) (not U6))
       (or (= E8 A4) (not F4) (not U6))
       (or (= R8 W7) (not C4) (not S6))
       (or (= Q8 V7) (not C4) (not S6))
       (or (= P8 U7) (not C4) (not S6))
       (or (= O8 T7) (not C4) (not S6))
       (or (= N8 S7) (not C4) (not S6))
       (or (= M8 R7) (not C4) (not S6))
       (or (= L8 Q7) (not C4) (not S6))
       (or (= W7 Q2) (not C4) (not S6))
       (or (= V7 R2) (not C4) (not S6))
       (or (= U7 S2) (not C4) (not S6))
       (or (= T7 T2) (not C4) (not S6))
       (or (= S7 1) (not C4) (not S6))
       (or (= R7 E4) (not C4) (not S6))
       (or (= Q7 A4) (not C4) (not S6))
       (or (and U3 X3) (and R3 Y3) (not W3))
       (or T3 (not F4) (not U6))
       (or (not T3) (not F4) (not I4))
       (or M2 (not Y2) (not S3))
       (or (not K2) (not R3) (not Y3))
       (or K2 (not R3) (not V3))
       (or I2 (not U3) (not K4))
       (or (not I2) (not U3) (not X3))
       (or E2 (not W3) (not G4))
       (or (not E2) (not W3) (not D4))
       (or (not U1) (not H4) (not B9))
       (or U1 (not H4) (not T6))
       (or S1 (not N4) (not T4))
       (or (not S1) (not N4) (not Q4))
       (or (not R1) (not P4) (not D5))
       (or R1 (not P4) (not S4))
       (or (not M1) (not R4) (not K5))
       (or M1 (not R4) (not V4))
       (or (not L1) (not U4) (not C6))
       (or L1 (not U4) (not X4))
       (or J1 (not W4) (not B6))
       (or (not J1) (not W4) (not R5))
       (or (not E1) (not Y4) (not M5))
       (or E1 (not Y4) (not B5))
       (or C1 (not A5) (not L5))
       (or (not C1) (not A5) (not E5))
       (or V (not J5) (not Y5))
       (or (not V) (not J5) (not O5))
       (or U (not N5) (not X5))
       (or (not U) (not N5) (not Q5))
       (or (not I) (not O6) (not A9))
       (or I (not O6) (not T8))
       (or G (not S8) (not Z8))
       (or (not G) (not S8) (not V8))
       (or A (not X8) (not L10))
       (or (not K10) (and X8 L10))
       a!1
       (or (not X8) (= J10 (+ 1 P2)))
       a!2
       (or (not U8) (= D (or B C)))
       (or (not U8) (= C (= X2 0)))
       (or (not U8) (= W8 (ite D X2 0)))
       (or (not U8) (and S8 V8))
       a!3
       (or (not S8) (= G (or E F)))
       (or (not S8) (= E (= N8 0)))
       (or (not S8) (and O6 T8))
       a!4
       (or (not O6) (not (= H I)))
       (or (not H6) (= J (= M6 1)))
       (or (not H6) (= N6 (+ K T2)))
       (or (not H6) (= K (ite J 1 (- 1))))
       (or (not E6) (= L (= T2 4)))
       (or (not E6) (not (= L M)))
       (or (not E6) (= G6 (ite M 1 0)))
       (or (not E6) (and W5 F6))
       (or (not Z5) (= N (= T2 0)))
       (or (not Z5) (= D6 (ite N 1 S2)))
       (or (not P5) (= O (= U5 1)))
       (or (not P5) (= V5 (+ P T2)))
       (or (not P5) (= P (ite O 1 (- 1))))
       a!5
       a!6
       (or (not N5) (= U (and R T)))
       (or (not N5) (= T (or S Q3)))
       (or (not N5) (= R (or Q P3)))
       (or (not N5) (and J5 O5))
       (or (not J5) (= V (= T2 0)))
       (or (not C5) (= W (= H5 1)))
       (or (not C5) (= I5 (+ X T2)))
       (or (not C5) (= X (ite W 1 (- 1))))
       a!7
       a!8
       (or (not A5) (= C1 (and Z B1)))
       (or (not A5) (= B1 (or A1 Q3)))
       (or (not A5) (= Z (or Y P3)))
       (or (not A5) (and Y4 B5))
       (or (not Y4) (= D1 (= T2 4)))
       (or (not Y4) (not (= D1 E1)))
       (or (not Y4) (and J4 Z4))
       a!9
       a!10
       (or (not W4) (= J1 (and G1 I1)))
       (or (not W4) (= I1 (or H1 Q3)))
       (or (not W4) (= G1 (or F1 P3)))
       (or (not W4) (and U4 X4))
       (or (not U4) (= K1 (= T2 4)))
       (or (not U4) (not (= K1 L1)))
       (or (not U4) (and R4 V4))
       (or (not R4) (= M1 (= S2 0)))
       a!11
       a!12
       (or (not P4) (= R1 (and O1 Q1)))
       (or (not P4) (= Q1 (or P1 Q3)))
       (or (not P4) (= O1 (or N1 P3)))
       (or (not P4) (and N4 Q4))
       (or (not N4) (= S1 (= T2 0)))
       (or (not N4) (and J4 O4))
       (or (not J4) (= M4 (= S2 1)))
       (or (not J4) (= T1 (= U2 1)))
       (or (not J4) (= L4 (ite T1 0 U2)))
       (or (not J4) (and U3 K4))
       (or (not H4) (= U1 (= R2 0)))
       (or (not H4) (and F4 I4))
       (or (not F4) (and W3 G4))
       (or (not C4) (= E4 (ite Z3 0 B4)))
       (or (not C4) (and W3 D4))
       a!13
       a!14
       (or (not W3) (= Z3 (= T2 3)))
       (or (not W3) (= D2 (and C2 Z3)))
       (or (not W3) (= B4 (ite D2 0 V2)))
       (or (not W3) (= A4 (ite D2 0 W2)))
       a!15
       (or (not U3) (= H2 (and F2 G2)))
       (or (not U3) (not (= H2 I2)))
       (or (not U3) (= F2 (= T2 3)))
       (or (not U3) (and R3 V3))
       a!16
       a!17
       (or (not R3) (= K2 (or J2 P3)))
       (or (not R3) (and Y2 S3))
       (= K10 true)
       (= Q3 (= V2 0))
       (= 1 v_273)))
      )
      (main_1 v_273 N2 I3 J3 K3 L3 O2 M3 N3 O3)
    )
  )
)
(assert
  (forall ( (A Bool) (B Bool) (C Bool) (D Bool) (E Bool) (F Bool) (G Bool) (H Bool) (I Bool) (J Bool) (K Bool) (L Int) (M Bool) (N Bool) (O Bool) (P Bool) (Q Int) (R Bool) (S Bool) (T Bool) (U Bool) (V Bool) (W Bool) (X Bool) (Y Int) (Z Bool) (A1 Bool) (B1 Bool) (C1 Bool) (D1 Bool) (E1 Bool) (F1 Bool) (G1 Bool) (H1 Bool) (I1 Bool) (J1 Bool) (K1 Bool) (L1 Bool) (M1 Bool) (N1 Bool) (O1 Bool) (P1 Bool) (Q1 Bool) (R1 Bool) (S1 Bool) (T1 Bool) (U1 Bool) (V1 Bool) (W1 Int) (X1 Int) (Y1 Int) (Z1 Int) (A2 Int) (B2 Int) (C2 Int) (D2 Bool) (E2 Bool) (F2 Bool) (G2 Bool) (H2 Bool) (I2 Bool) (J2 Bool) (K2 Bool) (L2 Bool) (M2 Bool) (N2 Bool) (O2 Int) (P2 Int) (Q2 Int) (R2 Int) (S2 Int) (T2 Int) (U2 Int) (V2 Int) (W2 Int) (X2 Int) (Y2 Bool) (Z2 Bool) (A3 Bool) (B3 Bool) (C3 Bool) (D3 Bool) (E3 Bool) (F3 Bool) (G3 Bool) (H3 Bool) (I3 Bool) (J3 Bool) (K3 Int) (L3 Int) (M3 Bool) (N3 Bool) (O3 Int) (P3 Bool) (Q3 Bool) (R3 Bool) (S3 Bool) (T3 Bool) (U3 Bool) (V3 Int) (W3 Bool) (X3 Bool) (Y3 Bool) (Z3 Bool) (A4 Bool) (B4 Bool) (C4 Bool) (D4 Bool) (E4 Bool) (F4 Bool) (G4 Bool) (H4 Bool) (I4 Bool) (J4 Bool) (K4 Bool) (L4 Bool) (M4 Bool) (N4 Bool) (O4 Bool) (P4 Int) (Q4 Int) (R4 Int) (S4 Int) (T4 Bool) (U4 Bool) (V4 Bool) (W4 Bool) (X4 Bool) (Y4 Bool) (Z4 Bool) (A5 Bool) (B5 Bool) (C5 Int) (D5 Int) (E5 Int) (F5 Int) (G5 Bool) (H5 Bool) (I5 Bool) (J5 Bool) (K5 Bool) (L5 Bool) (M5 Bool) (N5 Int) (O5 Bool) (P5 Bool) (Q5 Int) (R5 Bool) (S5 Bool) (T5 Bool) (U5 Int) (V5 Int) (W5 Int) (X5 Int) (Y5 Bool) (Z5 Bool) (A6 Bool) (B6 Bool) (C6 Bool) (D6 Bool) (E6 Bool) (F6 Int) (G6 Int) (H6 Int) (I6 Int) (J6 Int) (K6 Int) (L6 Int) (M6 Int) (N6 Int) (O6 Int) (P6 Int) (Q6 Int) (R6 Int) (S6 Int) (T6 Int) (U6 Int) (V6 Int) (W6 Int) (X6 Int) (Y6 Int) (Z6 Int) (A7 Int) (B7 Int) (C7 Int) (D7 Int) (E7 Int) (F7 Int) (G7 Int) (H7 Int) (I7 Int) (J7 Int) (K7 Int) (L7 Int) (M7 Int) (N7 Int) (O7 Int) (P7 Int) (Q7 Int) (R7 Int) (S7 Int) (T7 Int) (U7 Int) (V7 Int) (W7 Int) (X7 Int) (Y7 Int) (Z7 Int) (A8 Int) (B8 Int) (C8 Bool) (D8 Bool) (E8 Bool) (F8 Bool) (G8 Int) (H8 Bool) (I8 Bool) (J8 Bool) (K8 Bool) (L8 Bool) (M8 Int) (N8 Int) (O8 Int) (P8 Int) (Q8 Int) (R8 Int) (S8 Int) (T8 Int) (U8 Int) (V8 Int) (W8 Int) (X8 Int) (Y8 Int) (Z8 Int) (A9 Int) (B9 Int) (C9 Int) (D9 Int) (E9 Int) (F9 Int) (G9 Int) (H9 Int) (I9 Int) (J9 Int) (K9 Int) (L9 Int) (M9 Int) (N9 Int) (O9 Int) (P9 Int) (Q9 Int) (R9 Int) (S9 Int) (T9 Int) (U9 Bool) (V9 Bool) (W9 Bool) (X9 Int) (Y9 Int) (Z9 Bool) (A10 Bool) (B10 Bool) (C10 Bool) (D10 Bool) (v_264 Int) (v_265 Int) ) 
    (=>
      (and
        (main_1 v_264 P2 Q2 R2 S2 T2 U2 V2 W2 X2)
        (let ((a!1 (or (not H8) (not (= (<= 11 T9) B))))
      (a!2 (or (not E8) (not (= (<= Y7 3) C))))
      (a!3 (or (not C8) (not (= (<= 3 Y7) G))))
      (a!4 (or (not Y5) (not (= (= V7 1) I))))
      (a!5 (or (not X4) (not (= (<= 4 T2) T))))
      (a!6 (or (not X4) (not (= (<= 2 T2) R))))
      (a!7 (or (not G3) (not (= (= W2 0) D2))))
      (a!8 (or (not G3) (not (= (<= 2 T2) F2))))
      (a!9 (or (not E3) (not (= (= V2 0) H2))))
      (a!10 (or (not B3) (not (= (= T2 1) K2))))
      (a!11 (or (not B3) (not (= (<= 1 T2) D3))))
      (a!12 (or (not K4) (not (= (<= T2 2) B1))))
      (a!13 (or (not K4) (not (= (<= T2 0) Z))))
      (a!14 (or (not G4) (not (= (<= T2 2) I1))))
      (a!15 (or (not G4) (not (= (<= T2 0) G1))))
      (a!16 (or (not Z3) (not (= (<= 4 T2) Q1))))
      (a!17 (or (not Z3) (not (= (<= 2 T2) O1)))))
  (and (= 1 v_264)
       (= Z2 (= Q2 0))
       (= M2 (and Z2 A3))
       (not (= M2 N2))
       (or (and R5 Z5)
           (and M4 B6)
           (and M3 C6)
           (and R3 D6)
           (and P3 E6)
           (not Y5)
           (and A6 Z4))
       (or (and E8 I8) (and C8 J8) (and R3 L8) (not H8) (and K8 Y5))
       (or (and G5 K5) (and G4 L5) (and E4 M5) (not J5))
       (or (and B4 U4) (and K4 V4) (and I4 W4) (not T4))
       (or (not B10) (and C10 Z9) (and D10 U9))
       (or (and H8 V9) (and Y2 W9) (not U9))
       (or (= O2 X9) (not H8) (not V9))
       (or (= X9 S9) (not H8) (not V9))
       (or (= T8 G8) (not E8) (not I8))
       (or (= S8 V7) (not E8) (not I8))
       (or (= R8 W7) (not E8) (not I8))
       (or (= Q8 X7) (not E8) (not I8))
       (or (= P8 Y7) (not E8) (not I8))
       (or (= N8 A8) (not E8) (not I8))
       (or (= M8 B8) (not E8) (not I8))
       (or (= C2 S8) (not E8) (not I8))
       (or (= B2 R8) (not E8) (not I8))
       (or (= A2 Q8) (not E8) (not I8))
       (or (= Z1 P8) (not E8) (not I8))
       (or (= Y1 O8) (not E8) (not I8))
       (or (= X1 N8) (not E8) (not I8))
       (or (= W1 M8) (not E8) (not I8))
       (or (= O8 Z7) (not E8) (not I8))
       (or (= S9 T8) (not E8) (not I8))
       (or (= C2 A9) (not C8) (not J8))
       (or (= B2 Z8) (not C8) (not J8))
       (or (= A2 Y8) (not C8) (not J8))
       (or (= Z1 X8) (not C8) (not J8))
       (or (= Y1 W8) (not C8) (not J8))
       (or (= X1 V8) (not C8) (not J8))
       (or (= W1 U8) (not C8) (not J8))
       (or (= Z8 W7) (not C8) (not J8))
       (or (= Y8 X7) (not C8) (not J8))
       (or (= X8 Y7) (not C8) (not J8))
       (or (= W8 Z7) (not C8) (not J8))
       (or (= V8 A8) (not C8) (not J8))
       (or (= U8 B8) (not C8) (not J8))
       (or (= S9 B9) (not C8) (not J8))
       (or (= B9 X2) (not C8) (not J8))
       (or (= A9 V7) (not C8) (not J8))
       (or (and X4 A5) (and G4 B5) (not Z4))
       (or (= E5 C5) (not X4) (not A5))
       (or (= C5 0) (not X4) (not A5))
       (or (not G3) (and I3 B3) (and H3 E3))
       (or (= O2 Y9) (not Y2) (not W9))
       (or (= Y9 X2) (not Y2) (not W9))
       (or (not N2) (not Y2) (not W9))
       (or N2 (not Y2) (not C3))
       (or L2 (not B3) (not F3))
       (or H (not C8) (not J8))
       (or (not H) (not C8) (not F8))
       (or (not K8) (not Y5) (= C2 I9))
       (or (not K8) (not Y5) (= B2 H9))
       (or (not K8) (not Y5) (= A2 G9))
       (or (not K8) (not Y5) (= Z1 F9))
       (or (not K8) (not Y5) (= Y1 E9))
       (or (not K8) (not Y5) (= X1 D9))
       (or (not K8) (not Y5) (= W1 C9))
       (or (not K8) (not Y5) (= S9 J9))
       (or (not K8) (not Y5) (= J9 0))
       (or (not K8) (not Y5) (= I9 V7))
       (or (not K8) (not Y5) (= H9 W7))
       (or (not K8) (not Y5) (= G9 X7))
       (or (not K8) (not Y5) (= F9 Y7))
       (or (not K8) (not Y5) (= E9 Z7))
       (or (not K8) (not Y5) (= D9 A8))
       (or (not K8) (not Y5) (= C9 B8))
       (or (not A6) (not Z4) (= M6 W2))
       (or (not A6) (not Z4) (= B8 S6))
       (or (not A6) (not Z4) (= A8 R6))
       (or (not A6) (not Z4) (= Z7 Q6))
       (or (not A6) (not Z4) (= Y7 P6))
       (or (not A6) (not Z4) (= X7 O6))
       (or (not A6) (not Z4) (= W7 N6))
       (or (not A6) (not Z4) (= V7 M6))
       (or (not A6) (not Z4) (= S6 Q2))
       (or (not A6) (not Z4) (= R6 R2))
       (or (not A6) (not Z4) (= Q6 E5))
       (or (not A6) (not Z4) (= P6 F5))
       (or (not A6) (not Z4) (= O6 V3))
       (or (not A6) (not Z4) (= N6 V2))
       (or (and J5 S5) (and O5 T5) (not R5))
       (or (= L6 Q2) (not R5) (not Z5))
       (or (= K6 R2) (not R5) (not Z5))
       (or (= J6 W5) (not R5) (not Z5))
       (or (= I6 X5) (not R5) (not Z5))
       (or (= H6 V3) (not R5) (not Z5))
       (or (= G6 V2) (not R5) (not Z5))
       (or (= B8 L6) (not R5) (not Z5))
       (or (= A8 K6) (not R5) (not Z5))
       (or (= Z7 J6) (not R5) (not Z5))
       (or (= Y7 I6) (not R5) (not Z5))
       (or (= X7 H6) (not R5) (not Z5))
       (or (= W7 G6) (not R5) (not Z5))
       (or (= V7 F6) (not R5) (not Z5))
       (or (= F6 W2) (not R5) (not Z5))
       (or (= W5 V5) (not O5) (not T5))
       (or (= V5 Q5) (not O5) (not T5))
       (or (= W5 U5) (not S5) (not J5))
       (or (= U5 N5) (not S5) (not J5))
       (or (and T4 I5) (not G5) (and H5 X4))
       (or (not W3) (not G5) (not K5))
       (or W3 (not P5) (not G5))
       (or (and Z3 N4) (and K4 O4) (not M4))
       (or (= B8 Z6) (not M4) (not B6))
       (or (= A8 Y6) (not M4) (not B6))
       (or (= Z7 X6) (not M4) (not B6))
       (or (= Y7 W6) (not M4) (not B6))
       (or (= X7 V6) (not M4) (not B6))
       (or (= W7 U6) (not M4) (not B6))
       (or (= V7 T6) (not M4) (not B6))
       (or (= Z6 Q2) (not M4) (not B6))
       (or (= Y6 R2) (not M4) (not B6))
       (or (= X6 R4) (not M4) (not B6))
       (or (= W6 S4) (not M4) (not B6))
       (or (= V6 V3) (not M4) (not B6))
       (or (= U6 V2) (not M4) (not B6))
       (or (= T6 W2) (not M4) (not B6))
       (or (= R4 Q4) (not O4) (not K4))
       (or (= Q4 1) (not O4) (not K4))
       (or (not J4) (not T3) W3)
       (or (= E5 D5) (not B5) (not G4))
       (or (= D5 1) (not B5) (not G4))
       (or (and Z3 C4) (and X3 D4) (not B4))
       (or (not N1) (not U4) (not B4))
       (or N1 (not F4) (not B4))
       (or (= R4 P4) (not Z3) (not N4))
       (or (= P4 S2) (not Z3) (not N4))
       (or (not S1) (not Z3) (not N4))
       (or S1 (not Z3) (not C4))
       (or (not W3) (not Y3) (not T3))
       (or T1 (not X3) (not D4))
       (or (not T1) (not X3) (not A4))
       (or J2 (not U3) (not E3))
       (or (= B8 N7) (not R3) (not D6))
       (or (= A8 M7) (not R3) (not D6))
       (or (= Z7 L7) (not R3) (not D6))
       (or (= Y7 K7) (not R3) (not D6))
       (or (= X7 J7) (not R3) (not D6))
       (or (= W7 I7) (not R3) (not D6))
       (or (= V7 H7) (not R3) (not D6))
       (or (= N7 0) (not R3) (not D6))
       (or (= M7 0) (not R3) (not D6))
       (or (= L7 S2) (not R3) (not D6))
       (or (= K7 1) (not R3) (not D6))
       (or (= J7 1) (not R3) (not D6))
       (or (= I7 L3) (not R3) (not D6))
       (or (= H7 K3) (not R3) (not D6))
       (or (= C2 Q9) (not L8) (not R3))
       (or (= B2 P9) (not L8) (not R3))
       (or (= A2 O9) (not L8) (not R3))
       (or (= Z1 N9) (not L8) (not R3))
       (or (= Y1 M9) (not L8) (not R3))
       (or (= X1 L9) (not L8) (not R3))
       (or (= W1 K9) (not L8) (not R3))
       (or (= N9 1) (not L8) (not R3))
       (or (= M9 S2) (not L8) (not R3))
       (or (= L9 0) (not L8) (not R3))
       (or (= S9 R9) (not L8) (not R3))
       (or (= R9 1) (not L8) (not R3))
       (or (= Q9 1) (not L8) (not R3))
       (or (= P9 1) (not L8) (not R3))
       (or (= O9 1) (not L8) (not R3))
       (or (= K9 0) (not L8) (not R3))
       (or F2 (not Q3) (not G3))
       (or (= B8 U7) (not P3) (not E6))
       (or (= A8 T7) (not P3) (not E6))
       (or (= Z7 S7) (not P3) (not E6))
       (or (= Y7 R7) (not P3) (not E6))
       (or (= X7 Q7) (not P3) (not E6))
       (or (= W7 P7) (not P3) (not E6))
       (or (= V7 O7) (not P3) (not E6))
       (or (= U7 Q2) (not P3) (not E6))
       (or (= T7 R2) (not P3) (not E6))
       (or (= S7 S2) (not P3) (not E6))
       (or (= R7 T2) (not P3) (not E6))
       (or (= Q7 1) (not P3) (not E6))
       (or (= P7 L3) (not P3) (not E6))
       (or (= O7 K3) (not P3) (not E6))
       (or D3 (not P3) (not E6))
       (or (not D3) (not P3) (not S3))
       (or (not F2) (not N3) (not G3))
       (or (= B8 G7) (not M3) (not C6))
       (or (= A8 F7) (not M3) (not C6))
       (or (= Z7 E7) (not M3) (not C6))
       (or (= Y7 D7) (not M3) (not C6))
       (or (= X7 C7) (not M3) (not C6))
       (or (= W7 B7) (not M3) (not C6))
       (or (= V7 A7) (not M3) (not C6))
       (or (= G7 Q2) (not M3) (not C6))
       (or (= F7 R2) (not M3) (not C6))
       (or (= E7 S2) (not M3) (not C6))
       (or (= D7 T2) (not M3) (not C6))
       (or (= C7 1) (not M3) (not C6))
       (or (= B7 O3) (not M3) (not C6))
       (or (= A7 K3) (not M3) (not C6))
       (or (not L2) (not B3) (not I3))
       (or (not J2) (not E3) (not H3))
       (or V1 (not R3) (not D6))
       (or (not V1) (not L8) (not R3))
       (or (not E4) (not M1) (not M5))
       (or M1 (not E4) (not H4))
       (or K1 (not G4) (not L5))
       (or (not K1) (not B5) (not G4))
       (or (not F1) (not W4) (not I4))
       (or F1 (not L4) (not I4))
       (or D1 (not V4) (not K4))
       (or (not D1) (not O4) (not K4))
       (or (not W) (not T4) (not Y4))
       (or W (not I5) (not T4))
       (or (not V) (not X4) (not A5))
       (or V (not H5) (not X4))
       (or J (not Y5) (not D8))
       (or (not J) (not K8) (not Y5))
       (or (not B) (not H8) (not V9))
       (or A (not U9) (not A10))
       (or (not A) (not D10) (not U9))
       (or (not Z9) (and U9 A10))
       (or (not U9) (= A (= O2 0)))
       a!1
       (or (not H8) (= T9 (+ 1 P2)))
       a!2
       (or (not E8) (= E (or D C)))
       (or (not E8) (= D (= X2 0)))
       (or (not E8) (= G8 (ite E X2 0)))
       (or (not E8) (and C8 F8))
       a!3
       (or (not C8) (= H (or F G)))
       (or (not C8) (= F (= X7 0)))
       (or (not C8) (and Y5 D8))
       a!4
       (or (not Y5) (not (= I J)))
       (or (not Z4) (= P (= E5 1)))
       (or (not Z4) (= F5 (+ Q T2)))
       (or (not Z4) (= Q (ite P 1 (- 1))))
       a!5
       a!6
       (or (not X4) (= V (and S U)))
       (or (not X4) (= U (or T A3)))
       (or (not X4) (= S (or R Z2)))
       (or (not X4) (and T4 Y4))
       (or (not T3) (= W3 (= S2 1)))
       (or (not T3) (= U1 (= U2 1)))
       (or (not T3) (= V3 (ite U1 0 U2)))
       (or (not T3) (and U3 E3))
       a!7
       a!8
       (or (not G3) (= J3 (= T2 3)))
       (or (not G3) (= E2 (and D2 J3)))
       (or (not G3) (= L3 (ite E2 0 V2)))
       (or (not G3) (= K3 (ite E2 0 W2)))
       a!9
       (or (not E3) (= I2 (and G2 H2)))
       (or (not E3) (not (= I2 J2)))
       (or (not E3) (= G2 (= T2 3)))
       (or (not E3) (and B3 F3))
       a!10
       a!11
       (or (not B3) (= L2 (or K2 Z2)))
       (or (not B3) (and Y2 C3))
       (or (not R5) (= K (= W5 1)))
       (or (not R5) (= X5 (+ L T2)))
       (or (not R5) (= L (ite K 1 (- 1))))
       (or (not O5) (= M (= T2 4)))
       (or (not O5) (not (= M N)))
       (or (not O5) (= Q5 (ite N 1 0)))
       (or (not O5) (and G5 P5))
       (or (not J5) (= O (= T2 0)))
       (or (not J5) (= N5 (ite O 1 S2)))
       (or (not T4) (= W (= T2 0)))
       (or (not M4) (= X (= R4 1)))
       (or (not M4) (= S4 (+ Y T2)))
       (or (not M4) (= Y (ite X 1 (- 1))))
       a!12
       a!13
       (or (not K4) (= D1 (and A1 C1)))
       (or (not K4) (= C1 (or B1 A3)))
       (or (not K4) (= A1 (or Z Z2)))
       (or (not K4) (and I4 L4))
       (or (not I4) (= E1 (= T2 4)))
       (or (not I4) (not (= E1 F1)))
       (or (not I4) (and J4 T3))
       a!14
       a!15
       (or (not G4) (= K1 (and H1 J1)))
       (or (not G4) (= J1 (or I1 A3)))
       (or (not G4) (= H1 (or G1 Z2)))
       (or (not G4) (and E4 H4))
       (or (not E4) (= L1 (= T2 4)))
       (or (not E4) (not (= L1 M1)))
       (or (not E4) (and B4 F4))
       (or (not B4) (= N1 (= S2 0)))
       a!16
       a!17
       (or (not Z3) (= S1 (and P1 R1)))
       (or (not Z3) (= R1 (or Q1 A3)))
       (or (not Z3) (= P1 (or O1 Z2)))
       (or (not Z3) (and X3 A4))
       (or (not X3) (= T1 (= T2 0)))
       (or (not X3) (and Y3 T3))
       (or (not R3) (= V1 (= R2 0)))
       (or (not R3) (and P3 S3))
       (or (not P3) (and Q3 G3))
       (or (not M3) (= O3 (ite J3 0 L3)))
       (or (not M3) (and N3 G3))
       (= B10 true)
       (not Z9)
       (= A3 (= V2 0))
       (= 2 v_265)))
      )
      (main_1 v_265 P2 Q2 R2 S2 T2 U2 V2 W2 X2)
    )
  )
)
(assert
  (forall ( (A Int) (B Int) (C Int) (D Int) (E Int) (F Int) (G Int) (H Int) (I Int) (v_9 Int) ) 
    (=>
      (and
        (main_1 v_9 A B C D E F G H I)
        (= 2 v_9)
      )
      false
    )
  )
)

(check-sat)
(exit)
